Gurobi Optimizer version 9.1.2 build v9.1.2rc0 (linux64)
Thread count: 36 physical cores, 72 logical processors, using up to 32 threads
Optimize a model with 12 rows, 57 columns and 590 nonzeros
Model fingerprint: 0xf32eec78
Model has 47 quadratic constraints
Coefficient statistics:
  Matrix range     [2e-05, 3e+00]
  QMatrix range    [1e+00, 1e+00]
  QLMatrix range   [1e+00, 1e+00]
  Objective range  [8e-03, 7e-01]
  Bounds range     [1e+00, 1e+00]
  RHS range        [1e+00, 1e+00]
Presolve removed 9 rows and 0 columns

Continuous model is non-convex -- solving as a MIP.

Presolve removed 9 rows and 0 columns
Presolve time: 0.00s
Presolved: 189 rows, 57 columns, 443 nonzeros
Presolved model has 47 bilinear constraint(s)
Variable types: 57 continuous, 0 integer (0 binary)

Root relaxation: objective -1.743721e+00, 44 iterations, 0.00 seconds

    Nodes    |    Current Node    |     Objective Bounds      |     Work
 Expl Unexpl |  Obj  Depth IntInf | Incumbent    BestBd   Gap | It/Node Time

     0     0   -1.74372    0   38          -   -1.74372      -     -    0s
H    0     0                       0.6147548   -1.74372   384%     -    0s
     0     0   -1.64739    0    1    0.61475   -1.64739   368%     -    0s
H    0     0                      -1.6450460   -1.64739  0.14%     -    0s
     0     0     cutoff    0        -1.64505   -1.64505  0.00%     -    0s

Cutting planes:
  RLT: 25
  BQP: 3

Explored 1 nodes (76 simplex iterations) in 0.01 seconds
Thread count was 32 (of 72 available processors)

Solution count 2: -1.64505 0.614755 
No other solutions better than -1.64505

Optimal solution found (tolerance 1.00e-04)
Best objective -1.645045978473e+00, best bound -1.645045978473e+00, gap 0.0000%

User-callback calls 78, time in user-callback 0.00 sec
Gurobi Optimizer version 9.1.2 build v9.1.2rc0 (linux64)
Thread count: 36 physical cores, 72 logical processors, using up to 32 threads
Optimize a model with 60 rows, 300 columns and 15500 nonzeros
Model fingerprint: 0xd0e6e501
Model has 250 quadratic constraints
Coefficient statistics:
  Matrix range     [1e-06, 4e+00]
  QMatrix range    [1e+00, 1e+00]
  QLMatrix range   [1e+00, 1e+00]
  Objective range  [4e-04, 2e+00]
  Bounds range     [1e+00, 1e+00]
  RHS range        [1e+00, 1e+00]
Presolve removed 11 rows and 0 columns

Continuous model is non-convex -- solving as a MIP.

Presolve removed 11 rows and 0 columns
Presolve time: 0.01s
Presolved: 1049 rows, 300 columns, 14163 nonzeros
Presolved model has 250 bilinear constraint(s)
Variable types: 300 continuous, 0 integer (0 binary)

Root relaxation: objective -3.595561e+01, 333 iterations, 0.02 seconds

    Nodes    |    Current Node    |     Objective Bounds      |     Work
 Expl Unexpl |  Obj  Depth IntInf | Incumbent    BestBd   Gap | It/Node Time

     0     0  -35.95561    0  199          -  -35.95561      -     -    0s
     0     0  -32.64073    0  165          -  -32.64073      -     -    0s
H    0     0                     -15.8471021  -32.64073   106%     -    0s
     0     0  -31.92168    0  156  -15.84710  -31.92168   101%     -    0s
     0     0  -31.91858    0  142  -15.84710  -31.91858   101%     -    0s
     0     0  -31.84756    0  137  -15.84710  -31.84756   101%     -    0s
H    0     0                     -18.5040325  -31.84756  72.1%     -    0s
     0     0  -31.84718    0  137  -18.50403  -31.84718  72.1%     -    0s
     0     0  -31.84682    0  137  -18.50403  -31.84682  72.1%     -    0s
     0     0  -31.84682    0  137  -18.50403  -31.84682  72.1%     -    0s
H    0     0                     -26.0150860  -31.84682  22.4%     -    0s
H    0     0                     -26.1672187  -31.84682  21.7%     -    0s
H    0     0                     -26.1725983  -31.84682  21.7%     -    0s
     0     2  -31.84682    0  137  -26.17260  -31.84682  21.7%     -    0s
* 1472  1305              57     -26.1965619  -29.93159  14.3%  64.4    1s
* 1475  1305              59     -26.1968220  -29.93159  14.3%  64.3    1s
* 1477  1305              60     -26.1968321  -29.93159  14.3%  64.2    1s
* 2007  1802              56     -26.2096129  -29.86084  13.9%  57.0    2s
* 2008  1802              56     -26.2096593  -29.86084  13.9%  57.0    2s
* 2045  1802              67     -28.5761729  -29.86084  4.50%  56.4    2s
* 2794  1735              54     -28.7089098  -29.48146  2.69%  55.4    2s
* 3316  1793              37     -28.7102154  -29.33268  2.17%  56.4    2s
* 3545  1780              42     -28.7132628  -29.33268  2.16%  55.5    3s
* 3546  1780              42     -28.7132844  -29.33268  2.16%  55.5    3s
* 3548  1780              42     -28.7134293  -29.33268  2.16%  55.5    3s
* 3676  1809              56     -28.7649503  -29.33268  1.97%  55.1    3s
* 3677  1809              56     -28.7649667  -29.33268  1.97%  55.1    3s
* 4368  1815              54     -28.7650880  -29.11000  1.20%  52.4    3s
* 4369  1815              54     -28.7650933  -29.11000  1.20%  52.4    3s
* 4372  1815              55     -28.7651127  -29.11000  1.20%  52.4    3s
* 4551  1855              66     -28.7666988  -29.11000  1.19%  51.7    3s
* 4553  1855              67     -28.7668431  -29.11000  1.19%  51.7    3s
* 4763  1868              89     -28.7668713  -29.05165  0.99%  50.7    3s
* 4765  1868              90     -28.7668717  -29.05165  0.99%  50.7    3s
* 4768  1868              89     -28.7668719  -29.05165  0.99%  50.6    3s
* 4769  1868              89     -28.7668736  -29.05165  0.99%  50.6    3s
* 4779  1868              87     -28.7668748  -29.05165  0.99%  50.5    3s
* 4848  1868              68     -28.7669284  -29.05165  0.99%  50.1    3s
* 4849  1868              68     -28.7669304  -29.05165  0.99%  50.1    3s
* 4854  1868              69     -28.7669310  -29.05165  0.99%  50.1    3s
* 4855  1868              69     -28.7669322  -29.05165  0.99%  50.1    3s
* 5300  1999              66     -28.7671419  -29.05165  0.99%  47.7    3s
* 5485  2069              64     -28.7727298  -29.05165  0.97%  46.7    3s
* 5486  2069              64     -28.7727299  -29.05165  0.97%  46.7    3s
* 5488  2069              64     -28.7727328  -29.05165  0.97%  46.7    3s
  6934   906  -29.05165   19  132  -28.77273  -29.05165  0.97%  50.6    5s
* 8295   768              61     -28.7763725  -29.05165  0.96%  49.6    5s
* 8675   638              64     -28.7769222  -29.05165  0.95%  48.2    5s
* 8676   583              64     -28.7769241  -29.05165  0.95%  48.1    5s
* 8975   616              64     -28.7770690  -29.05165  0.95%  47.4    5s
* 8977   616              65     -28.7770700  -29.05165  0.95%  47.4    5s
* 9186   665              66     -28.7770700  -29.05165  0.95%  46.9    5s
* 9193   665              70     -28.7770701  -29.05165  0.95%  46.8    5s
* 9194   665              70     -28.7770702  -29.05165  0.95%  46.8    5s
* 9198   665              71     -28.7770702  -29.05165  0.95%  46.8    5s
* 9241   665              84     -28.7772510  -29.05165  0.95%  46.7    5s
* 9243   665              85     -28.7772551  -29.05165  0.95%  46.7    5s
* 9458   735              86     -28.7772602  -29.05165  0.95%  46.2    5s
* 9459   735              86     -28.7772604  -29.05165  0.95%  46.2    5s
* 9463   735              84     -28.7772607  -29.05165  0.95%  46.2    5s
* 9469   735              85     -28.7772694  -29.05165  0.95%  46.2    5s
* 9605   817              82     -28.7856433  -29.05165  0.92%  45.8    5s
* 9865   806              84     -28.7856805  -29.05165  0.92%  45.1    6s
* 9866   806              83     -28.7856828  -29.05165  0.92%  45.1    6s
* 9868   806              83     -28.7856852  -29.05165  0.92%  45.1    6s
* 9869   806              83     -28.7856859  -29.05165  0.92%  45.1    6s
*10893   929              54     -28.7887142  -29.05165  0.91%  43.3    6s
*11209   987              58     -28.7887206  -29.05165  0.91%  42.6    6s
*11210   987              58     -28.7887207  -29.05165  0.91%  42.6    6s
*11357  1086              58     -28.7904779  -29.05165  0.91%  42.3    6s
*11358  1086              58     -28.7904779  -29.05165  0.91%  42.3    6s
*11853  1204              51     -28.7905096  -29.05165  0.91%  41.2    6s
*11855  1204              52     -28.7905560  -29.05165  0.91%  41.2    6s
*11999  1381              51     -28.7905870  -29.05165  0.91%  40.9    6s
*12115  1381              67     -28.7922800  -29.05165  0.90%  40.6    6s
*12116  1381              67     -28.7923375  -29.05165  0.90%  40.6    6s
*12123  1381              72     -28.7925233  -29.05165  0.90%  40.6    6s
*12137  1381              43     -28.8023030  -29.05165  0.87%  40.6    6s
*12139  1381              44     -28.8030622  -29.05165  0.86%  40.6    6s
*12140  1381              44     -28.8030690  -29.05165  0.86%  40.6    6s
*12672  1489              82     -28.8040179  -29.05165  0.86%  39.4    6s
*12673  1489              82     -28.8040182  -29.05165  0.86%  39.4    6s
*13010  1673              69     -28.8042893  -29.05165  0.86%  38.7    6s
*13141  1673              56     -28.8150887  -29.05165  0.82%  38.5    6s
*13142  1673              56     -28.8158737  -29.05165  0.82%  38.5    6s
*13881  1988              50     -28.8213804  -29.05165  0.80%  37.2    6s
*13885  1988              53     -28.8215961  -29.05165  0.80%  37.2    6s
*14240  1988              67     -28.8387734  -29.05165  0.74%  36.5    6s
*14241  1988              67     -28.8387794  -29.05165  0.74%  36.5    6s
*14249  1988              71     -28.8391310  -29.05165  0.74%  36.5    6s
*14762  1820              71     -28.8391311  -29.05165  0.74%  35.7    6s
*14763  1820              70     -28.8392710  -29.05165  0.74%  35.7    6s
*14831  1968              61     -28.8394929  -29.05165  0.74%  35.6    6s
*14963  1968              60     -28.8415312  -29.05165  0.73%  35.4    6s
*14967  1968              63     -28.8415319  -29.05165  0.73%  35.4    6s
*15124  1968              55     -28.8532787  -29.05165  0.69%  35.1    6s
*15126  1968              56     -28.8532941  -29.05165  0.69%  35.1    6s
*15127  1968              56     -28.8532952  -29.05165  0.69%  35.1    6s
*15401  1873              62     -28.8554547  -29.03038  0.61%  34.7    7s
*15405  1873              64     -28.8554588  -29.03038  0.61%  34.7    7s
*15903  1946              84     -28.8681744  -29.03038  0.56%  33.9    7s
*16505  1645              96     -28.8681765  -28.99904  0.45%  33.1    7s
*16506  1645              96     -28.8681768  -28.99904  0.45%  33.1    7s
*16507  1645              95     -28.8681775  -28.99904  0.45%  33.1    7s
*16508  1645              94     -28.8681782  -28.99904  0.45%  33.1    7s
*16511  1645              94     -28.8681783  -28.99904  0.45%  33.1    7s
*16953  1645              64     -28.8686739  -28.99904  0.45%  32.5    7s
*16960  1645              66     -28.8686790  -28.99904  0.45%  32.4    7s
*16963  1645              67     -28.8686798  -28.99904  0.45%  32.4    7s
*17250  1841              52     -28.8694372  -28.92525  0.19%  32.0    7s
*17260  1841              56     -28.8695083  -28.92525  0.19%  32.0    7s
*17262  1841              57     -28.8695096  -28.92525  0.19%  32.0    7s
*17641  1841              55     -28.8695708  -28.90147  0.11%  31.5    7s
*17975  1841              50     -28.8697838  -28.90147  0.11%  31.0    7s
*18020  1902              60     -28.8697898  -28.90064  0.11%  30.9    7s
*18021  1902              60     -28.8697900  -28.90064  0.11%  30.9    7s
*18023  1902              59     -28.8698411  -28.90064  0.11%  30.9    7s
*18110  1902              60     -28.8698814  -28.89635  0.09%  30.8    7s
*18111  1902              60     -28.8698951  -28.89635  0.09%  30.8    7s
*18114  1902              61     -28.8699001  -28.89635  0.09%  30.8    7s
*18294  1902              65     -28.8714681  -28.89635  0.09%  30.6    7s
*18355  1902              55     -28.8715868  -28.89635  0.09%  30.5    7s
*18357  1902              56     -28.8715892  -28.89635  0.09%  30.5    7s
*18361  1902              56     -28.8716413  -28.89635  0.09%  30.5    7s
*18818  2070              53     -28.8721736  -28.88515  0.04%  29.9    7s
*18819  2070              53     -28.8721738  -28.88515  0.04%  29.9    7s
*18853  2070              62     -28.8724257  -28.88515  0.04%  29.8    7s
*18944  2070              57     -28.8730729  -28.88515  0.04%  29.7    7s
*18947  2070              57     -28.8735689  -28.88515  0.04%  29.7    7s
*18948  2070              57     -28.8735839  -28.88515  0.04%  29.7    7s
*19150  2070              54     -28.8739734  -28.88515  0.04%  29.4    7s
*19292  2070              49     -28.8743663  -28.88515  0.04%  29.2    7s
*19296  2070              51     -28.8743851  -28.88515  0.04%  29.2    7s
*19941   689              58     -28.8748242  -28.87600  0.00%  28.4    7s
*19944   689              58     -28.8748244  -28.87600  0.00%  28.4    7s
*19947   689              57     -28.8748252  -28.87600  0.00%  28.4    7s
*19950   689              56     -28.8748261  -28.87600  0.00%  28.4    7s

Explored 21239 nodes (567547 simplex iterations) in 7.72 seconds
Thread count was 32 (of 72 available processors)

Solution count 10: -28.8748 -28.8748 -28.8748 ... -28.8731

Optimal solution found (tolerance 1.00e-04)
Best objective -2.887482608914e+01, best bound -2.887599538925e+01, gap 0.0040%

User-callback calls 43672, time in user-callback 0.01 sec



objective value: -28.87482608914179
objective bound: -28.875995389253927
x_opt: [0.0, 1.0, 1.0, 0.0, 0.0, 0.0, 1.0, 1.0, 0.0, 0.0, 0.11594667822391548, 0.3228649872045722, 0.0, 1.0, 1.0, 1.0, 0.0, 1.0, 0.0, 0.0, 0.0, 1.0, 1.0, 1.0, 0.0, 1.0, 1.0, 1.0, 0.0, 0.7509889637058975, 0.9074438993322747, 0.7075428117506233, 0.0, 0.28904731724250393, 1.0, 1.0, 0.9590581652588568, 1.0, 0.6040178692870185, 1.0, 1.0, 0.4363587823635834, 1.0, 0.0, 0.0, 0.7846710471150307, 9.317398294664447e-7, 0.0, 0.0, 1.0]
GUROBI solution time: 7.71812105178833

